; benchmark generated from python API
(set-info :status unknown)
(declare-fun W_S1_V1 () Bool)
(declare-fun R_E1_V4 () Bool)
(declare-fun W_S1_V4 () Bool)
(declare-fun R_E1_V5 () Bool)
(declare-fun W_S1_V5 () Bool)
(declare-fun W_S2_V5 () Bool)
(declare-fun W_S2_V2 () Bool)
(declare-fun W_S2_V3 () Bool)
(declare-fun W_S2_V1 () Bool)
(declare-fun R_S2_V4 () Bool)
(declare-fun R_S2_V5 () Bool)
(declare-fun R_S2_V2 () Bool)
(declare-fun R_S2_V3 () Bool)
(declare-fun R_S2_V1 () Bool)
(declare-fun R_S1_V1 () Bool)
(declare-fun R_E1_V2 () Bool)
(declare-fun DISJ_W_S2_R_E1 () Bool)
(declare-fun DISJ_W_S2_R_S2 () Bool)
(declare-fun R_S1_V4 () Bool)
(declare-fun R_S1_V5 () Bool)
(declare-fun R_S1_V2 () Bool)
(declare-fun R_S1_V3 () Bool)
(declare-fun DISJ_W_S2_R_S1 () Bool)
(declare-fun DISJ_W_S1_W_S2 () Bool)
(declare-fun R_E1_V3 () Bool)
(declare-fun DISJ_W_S1_R_S2 () Bool)
(declare-fun DISJ_W_S1_R_S1 () Bool)
(declare-fun W_S2_V4 () Bool)
(declare-fun W_S1_V3 () Bool)
(declare-fun W_S1_V2 () Bool)
(declare-fun R_E1_V1 () Bool)
(declare-fun DISJ_W_S1_R_E1 () Bool)
(assert
 (let (($x69 (not (and W_S1_V4 R_E1_V4))))
 (let (($x3367 (not (and W_S1_V5 R_E1_V5))))
 (let (($x5969 (forall ((V3_0 Int) )(forall ((V2_0 Int) )(forall ((V5_0 Int) )(forall ((V4_0 Int) )(forall ((MW_S1_V1 Bool) )(forall ((MW_S1_V3 Bool) )(forall ((MW_S1_V2 Bool) )(forall ((MW_S1_V5 Bool) )(forall ((MW_S1_V4 Bool) )(forall ((MW_S2_V1 Bool) )(forall ((MW_S2_V3 Bool) )(forall ((MW_S2_V2 Bool) )(forall ((MW_S2_V5 Bool) )(forall ((MW_S2_V4 Bool) )(forall ((S1_V1_!1338 Int) )(forall ((S1_V1_!1350 Int) )(forall ((S2_V5_!1347 Int) )(forall ((S2_V5_!1358 Int) )(forall ((S1_V3_!1339 Int) )(forall ((S1_V3_!1351 Int) )(forall ((S1_V2_!1340 Int) )(forall ((S1_V2_!1352 Int) )(forall ((E1_!1337 Int) )(forall ((E1_!1343 Int) )(forall ((E1_!1349 Int) )(forall ((S2_V4_!1348 Int) )(forall ((S2_V4_!1359 Int) )(forall ((S1_V5_!1341 Int) )(forall ((S1_V5_!1353 Int) )(forall ((S2_V1_!1344 Int) )(forall ((S2_V1_!1355 Int) )(forall ((S1_V4_!1342 Int) )(forall ((S1_V4_!1354 Int) )(forall ((S2_V2_!1346 Int) )(forall ((S2_V2_!1357 Int) )(forall ((S2_V3_!1345 Int) )(forall ((S2_V3_!1356 Int) )(let (($x2576 (= (ite MW_S2_V4 S2_V4_!1348 (ite MW_S1_V4 S1_V4_!1342 V4_0)) (ite MW_S2_V4 S2_V4_!1359 (ite MW_S1_V4 S1_V4_!1354 V4_0)))))
 (let (($x2045 (= (ite MW_S2_V5 S2_V5_!1347 (ite MW_S1_V5 S1_V5_!1341 V5_0)) (ite MW_S2_V5 S2_V5_!1358 (ite MW_S1_V5 S1_V5_!1353 V5_0)))))
 (let ((?x3107 (ite MW_S1_V2 S1_V2_!1352 V2_0)))
 (let ((?x4926 (ite MW_S2_V2 S2_V2_!1357 ?x3107)))
 (let ((?x2084 (ite MW_S1_V2 S1_V2_!1340 V2_0)))
 (let ((?x961 (ite MW_S2_V2 S2_V2_!1346 ?x2084)))
 (let (($x564 (= (ite MW_S2_V3 S2_V3_!1345 (ite MW_S1_V3 S1_V3_!1339 V3_0)) (ite MW_S2_V3 S2_V3_!1356 (ite MW_S1_V3 S1_V3_!1351 V3_0)))))
 (let (($x3655 (and (= (ite MW_S2_V1 S2_V1_!1344 E1_!1343) (ite MW_S2_V1 S2_V1_!1355 (ite MW_S1_V1 S1_V1_!1350 E1_!1349))) $x564 (= ?x961 ?x4926) $x2045 $x2576)))
 (let (($x62 (and (not (<= V2_0 E1_!1337)) (>= (ite MW_S1_V1 S1_V1_!1338 E1_!1337) (+ (- 1) ?x2084)) (not (<= ?x2084 E1_!1343)) (>= (ite MW_S2_V1 S2_V1_!1344 E1_!1343) (+ (- 1) ?x961)) (not (<= V2_0 E1_!1349)) (>= (ite MW_S2_V1 S2_V1_!1355 (ite MW_S1_V1 S1_V1_!1350 E1_!1349)) (+ (- 1) ?x4926)))))
 (let (($x4811 (= S2_V3_!1356 S2_V3_!1345)))
 (let (($x957 (and (or (not R_S2_V1) (= (ite MW_S1_V1 S1_V1_!1350 E1_!1349) E1_!1343)) (or (not R_S2_V3) (= (ite MW_S1_V3 S1_V3_!1351 V3_0) (ite MW_S1_V3 S1_V3_!1339 V3_0))) (or (not R_S2_V2) (= ?x3107 ?x2084)) (or (not R_S2_V5) (= (ite MW_S1_V5 S1_V5_!1353 V5_0) (ite MW_S1_V5 S1_V5_!1341 V5_0))) (or (not R_S2_V4) (= (ite MW_S1_V4 S1_V4_!1354 V4_0) (ite MW_S1_V4 S1_V4_!1342 V4_0))))))
 (let (($x5867 (not $x957)))
 (let (($x1604 (and (or (not R_S2_V1) (= E1_!1343 (ite MW_S1_V1 S1_V1_!1350 E1_!1349))) (or (not R_S2_V3) (= (ite MW_S1_V3 S1_V3_!1339 V3_0) (ite MW_S1_V3 S1_V3_!1351 V3_0))) (or (not R_S2_V2) (= ?x2084 ?x3107)) (or (not R_S2_V5) (= (ite MW_S1_V5 S1_V5_!1341 V5_0) (ite MW_S1_V5 S1_V5_!1353 V5_0))) (or (not R_S2_V4) (= (ite MW_S1_V4 S1_V4_!1342 V4_0) (ite MW_S1_V4 S1_V4_!1354 V4_0))))))
 (let (($x305 (not $x1604)))
 (let (($x3524 (and (or (not R_E1_V2) (= ?x2084 V2_0)) (or (not R_E1_V5) (= (ite MW_S1_V5 S1_V5_!1341 V5_0) V5_0)) (or (not R_E1_V4) (= (ite MW_S1_V4 S1_V4_!1342 V4_0) V4_0)))))
 (let (($x5911 (not $x3524)))
 (let (($x2930 (= E1_!1337 E1_!1349)))
 (let (($x5770 (and (or (not (or (not R_S1_V1) (= E1_!1349 E1_!1337))) (= S1_V1_!1350 S1_V1_!1338)) (or $x5867 (= S2_V5_!1358 S2_V5_!1347)) (or (not (or (not R_S1_V1) $x2930)) (= S1_V3_!1339 S1_V3_!1351)) (or (not (or (not R_S1_V1) (= E1_!1349 E1_!1337))) (= S1_V2_!1352 S1_V2_!1340)) $x2930 (or $x5911 (= E1_!1343 E1_!1337)) (or $x5911 (= E1_!1343 E1_!1349)) (or $x305 (= S2_V4_!1348 S2_V4_!1359)) (or (not (or (not R_S1_V1) (= E1_!1349 E1_!1337))) (= S1_V5_!1353 S1_V5_!1341)) (or $x305 (= S2_V1_!1344 S2_V1_!1355)) (or (not (or (not R_S1_V1) $x2930)) (= S1_V4_!1342 S1_V4_!1354)) (or $x5867 (= S2_V2_!1357 S2_V2_!1346)) (or $x5867 $x4811) (or (not MW_S1_V1) W_S1_V1) (not MW_S1_V2) (or (not MW_S1_V5) W_S1_V5) (or (not MW_S1_V4) W_S1_V4) (or (not MW_S2_V1) W_S2_V1) (or (not MW_S2_V3) W_S2_V3) (or (not MW_S2_V2) W_S2_V2) (or (not MW_S2_V5) W_S2_V5))))
 (or (not $x5770) (not $x62) $x3655))))))))))))))))))))
 )
 )
 )
 )
 )
 )
 )
 )
 )
 )
 )
 )
 )
 )
 )
 )
 )
 )
 )
 )
 )
 )
 )
 )
 )
 )
 )
 )
 )
 )
 )
 )
 )
 )
 )
 )
 ))
 (let (($x5811 (not (or (and W_S2_V2 R_E1_V2) (and W_S2_V5 R_E1_V5) R_E1_V4))))
 (let (($x1308 (= DISJ_W_S2_R_E1 $x5811)))
 (let (($x919 (and W_S2_V5 R_S2_V5)))
 (let (($x5151 (and W_S2_V2 R_S2_V2)))
 (let (($x1238 (and W_S2_V3 R_S2_V3)))
 (let (($x3749 (and W_S2_V1 R_S2_V1)))
 (let (($x3259 (= DISJ_W_S2_R_S2 (not (or $x3749 $x1238 $x5151 $x919 R_S2_V4)))))
 (let (($x745 (and W_S2_V5 R_S1_V5)))
 (let (($x2877 (and W_S2_V2 R_S1_V2)))
 (let (($x3636 (and W_S2_V3 R_S1_V3)))
 (let (($x4155 (and W_S2_V1 R_S1_V1)))
 (let (($x2234 (= DISJ_W_S2_R_S1 (not (or $x4155 $x3636 $x2877 $x745 R_S1_V4)))))
 (let (($x2101 (and W_S1_V5 W_S2_V5)))
 (let (($x3276 (and W_S1_V1 W_S2_V1)))
 (let (($x60 (= DISJ_W_S1_W_S2 (not (or $x3276 W_S2_V3 $x2101 W_S1_V4)))))
 (let (($x5961 (not R_E1_V3)))
 (let (($x803 (and W_S1_V4 R_S2_V4)))
 (let (($x2850 (and W_S1_V5 R_S2_V5)))
 (let (($x6052 (and W_S1_V1 R_S2_V1)))
 (let (($x2335 (= DISJ_W_S1_R_S2 (not (or $x6052 R_S2_V3 $x2850 $x803)))))
 (let (($x2706 (and W_S1_V4 R_S1_V4)))
 (let (($x2463 (and W_S1_V5 R_S1_V5)))
 (let (($x5870 (and W_S1_V1 R_S1_V1)))
 (let (($x2587 (= DISJ_W_S1_R_S1 (not (or $x5870 R_S1_V3 $x2463 $x2706)))))
 (let (($x4282 (not W_S1_V2)))
 (let (($x3914 (not R_E1_V1)))
 (let (($x4720 (and DISJ_W_S1_R_E1 $x3914 $x4282 W_S1_V3 W_S2_V4 $x2587 $x2335 $x5961 $x60 $x2234 $x3259 $x1308 $x5969 $x3367 $x69)))
 (and $x4720 W_S1_V1))))))))))))))))))))))))))))))))
(check-sat)
